c FILE                  :graph_3N_3CC.gr
c No. of vertices       :2
c No. of edges          :1
c Max. weight           :1
c Min. weight           :1
c Min. edge             :1
c Max. edge             :3
p sp 3 0
